c FILE: i160-332

c SOURCE: From steinlib

c DESCRIPTION: Steinlib instance with 160 nodes and 320 edges.

p edge 160 320
e 1 15
e 1 20
e 1 47
e 1 53
e 1 57
e 1 68
e 1 84
e 1 156
e 2 35
e 2 149
e 3 47
e 3 79
e 3 90
e 3 158
e 4 88
e 5 17
e 6 9
e 6 35
e 6 62
e 6 73
e 6 97
e 6 146
e 7 13
e 7 18
e 7 48
e 7 53
e 7 83
e 7 135
e 7 139
e 8 29
e 8 61
e 8 136
e 10 16
e 10 111
e 10 130
e 11 25
e 11 37
e 11 155
e 12 23
e 12 26
e 12 127
e 12 138
e 12 156
e 14 123
e 14 126
e 14 132
e 14 137
e 14 152
e 15 29
e 15 30
e 15 32
e 15 36
e 15 64
e 15 78
e 15 100
e 15 119
e 15 135
e 15 151
e 16 27
e 16 63
e 16 66
e 16 90
e 16 137
e 16 149
e 17 32
e 17 46
e 17 53
e 17 107
e 17 115
e 18 40
e 18 41
e 18 138
e 19 106
e 19 145
e 20 40
e 20 71
e 20 93
e 21 70
e 21 71
e 21 86
e 21 94
e 21 105
e 21 139
e 21 141
e 22 78
e 22 123
e 22 158
e 23 86
e 23 107
e 24 64
e 24 110
e 24 150
e 25 39
e 25 111
e 25 121
e 25 150
e 26 54
e 26 86
e 26 139
e 26 152
e 27 32
e 27 33
e 27 65
e 27 93
e 28 51
e 28 98
e 28 116
e 28 155
e 29 79
e 29 108
e 29 135
e 29 153
e 30 49
e 30 50
e 30 102
e 31 41
e 31 77
e 31 128
e 32 50
e 32 81
e 32 106
e 32 107
e 32 133
e 32 140
e 33 45
e 34 44
e 34 50
e 34 58
e 34 67
e 34 92
e 34 117
e 34 123
e 34 140
e 34 151
e 35 57
e 36 44
e 36 65
e 36 69
e 36 96
e 36 158
e 37 56
e 37 94
e 38 111
e 38 155
e 39 79
e 39 80
e 39 112
e 39 124
e 40 84
e 40 146
e 41 49
e 41 76
e 41 89
e 42 78
e 42 133
e 42 141
e 43 62
e 44 93
e 45 51
e 45 110
e 46 58
e 46 84
e 46 100
e 46 102
e 46 104
e 47 75
e 47 81
e 47 139
e 49 74
e 49 105
e 49 134
e 49 160
e 50 61
e 50 96
e 50 145
e 51 77
e 51 130
e 51 151
e 52 123
e 52 131
e 53 59
e 53 93
e 53 113
e 53 119
e 53 129
e 53 151
e 53 155
e 54 136
e 54 138
e 54 142
e 55 65
e 55 119
e 56 84
e 56 111
e 56 115
e 56 116
e 57 71
e 57 104
e 58 133
e 59 74
e 60 76
e 60 81
e 60 94
e 60 149
e 61 101
e 61 103
e 62 86
e 62 130
e 62 149
e 63 123
e 64 83
e 65 75
e 65 84
e 66 135
e 67 148
e 68 88
e 68 94
e 68 95
e 68 143
e 68 145
e 69 145
e 70 90
e 70 139
e 71 73
e 71 115
e 71 135
e 71 157
e 72 113
e 72 157
e 73 99
e 73 117
e 73 133
e 73 137
e 74 89
e 74 146
e 75 94
e 75 139
e 76 83
e 77 84
e 77 85
e 77 101
e 77 109
e 78 159
e 80 151
e 81 96
e 81 128
e 82 92
e 82 123
e 82 150
e 83 101
e 83 120
e 83 125
e 83 147
e 84 152
e 86 123
e 86 134
e 86 142
e 87 95
e 87 98
e 87 133
e 89 126
e 90 111
e 90 130
e 90 135
e 91 115
e 92 104
e 93 97
e 93 139
e 95 112
e 96 146
e 96 151
e 96 153
e 98 146
e 99 114
e 99 154
e 100 136
e 101 134
e 101 155
e 102 115
e 103 121
e 103 138
e 107 151
e 108 118
e 109 145
e 110 124
e 111 140
e 111 153
e 112 115
e 114 136
e 115 122
e 116 142
e 118 129
e 119 139
e 119 147
e 120 134
e 120 155
e 121 138
e 121 144
e 121 150
e 121 154
e 123 135
e 123 143
e 124 129
e 125 152
e 127 151
e 129 142
e 131 147
e 131 148
e 133 154
e 137 152
e 138 159
e 139 149
e 141 147
e 143 159
e 145 157
e 146 159
e 148 157
e 151 155
e 152 159
e 155 159
